(set-option :print-success false)
(set-logic QF_UF)
(declare-sort x168 0)
(declare-sort x526 0)
(declare-sort x664 0)
(declare-sort x188 0)
(declare-sort x536 0)
(declare-sort x11 0)
(declare-fun x448 () x168)
(declare-fun x228 () Bool)
(declare-fun x86 () x526)
(declare-fun x317 () x526)
(declare-fun x290 () Bool)
(declare-fun x422 () x526)
(declare-fun x514 () Bool)
(declare-fun x385 () Bool)
(declare-fun x176 () x168)
(declare-fun x327 () Bool)
(declare-fun x283 () x168)
(declare-fun x33 () Bool)
(declare-fun x362 () Bool)
(declare-fun x22 () Bool)
(declare-fun x51 () x168)
(declare-fun x320 () x168)
(declare-fun x125 () Bool)
(declare-fun x620 () Bool)
(declare-fun x677 () x11)
(declare-fun x193 () Bool)
(declare-fun x421 () Bool)
(declare-fun x640 () x168)
(declare-fun x686 () Bool)
(declare-fun x277 () Bool)
(declare-fun x384 () x11)
(declare-fun x179 () Bool)
(declare-fun x210 () Bool)
(declare-fun x676 () Bool)
(declare-fun x358 () Bool)
(declare-fun x257 () Bool)
(declare-fun x417 () Bool)
(declare-fun x1 () Bool)
(declare-fun x331 () Bool)
(declare-fun x62 () Bool)
(declare-fun x610 () Bool)
(declare-fun x628 () Bool)
(declare-fun x123 () Bool)
(declare-fun x549 () Bool)
(declare-fun x238 () Bool)
(declare-fun x533 () Bool)
(declare-fun x44 () Bool)
(declare-fun x108 () Bool)
(declare-fun x231 () Bool)
(declare-fun x573 () Bool)
(declare-fun x652 () Bool)
(declare-fun x680 () Bool)
(declare-fun x575 () Bool)
(declare-fun x118 () Bool)
(declare-fun x99 () Bool)
(declare-fun x148 () Bool)
(declare-fun x250 () Bool)
(declare-fun x601 () Bool)
(declare-fun x198 () Bool)
(declare-fun x120 () Bool)
(declare-fun x707 () Bool)
(declare-fun x354 () Bool)
(declare-fun x391 () Bool)
(declare-fun x606 () Bool)
(declare-fun x182 () Bool)
(declare-fun x265 () Bool)
(declare-fun x122 () Bool)
(declare-fun x608 () x11)
(declare-fun x71 () Bool)
(declare-fun x17 () Bool)
(declare-fun x363 () x11)
(declare-fun x630 () x11)
(declare-fun x674 () Bool)
(declare-fun x637 () x168)
(declare-fun x463 () Bool)
(declare-fun x94 () Bool)
(declare-fun x662 () Bool)
(declare-fun x330 () Bool)
(declare-fun x137 () Bool)
(declare-fun x119 () Bool)
(declare-fun x395 () x168)
(declare-fun x352 () Bool)
(declare-fun x623 () x526)
(declare-fun x444 () Bool)
(declare-fun x319 () Bool)
(declare-fun x35 () Bool)
(declare-fun x4 () Bool)
(declare-fun x10 () x11)
(declare-fun x54 () Bool)
(declare-fun x339 () Bool)
(declare-fun x236 () x11)
(declare-fun x45 () x168)
(declare-fun x264 () Bool)
(declare-fun x259 () Bool)
(declare-fun x507 () x11)
(declare-fun x185 () x168)
(declare-fun x333 () Bool)
(declare-fun x357 () Bool)
(declare-fun x667 () Bool)
(declare-fun x497 () Bool)
(declare-fun x234 () x168)
(declare-fun x220 () Bool)
(declare-fun x335 () Bool)
(declare-fun x579 () x11)
(declare-fun x309 () Bool)
(declare-fun x442 () x11)
(declare-fun x454 () Bool)
(declare-fun x13 () x526)
(declare-fun x322 () Bool)
(declare-fun x215 () Bool)
(declare-fun x612 () Bool)
(declare-fun x563 () Bool)
(declare-fun x379 () Bool)
(declare-fun x14 () Bool)
(declare-fun x531 () Bool)
(declare-fun x278 () Bool)
(declare-fun x544 () x168)
(declare-fun x617 () Bool)
(declare-fun x593 () Bool)
(declare-fun x431 () Bool)
(declare-fun x556 () Bool)
(declare-fun x542 () Bool)
(declare-fun x516 () Bool)
(declare-fun x102 () Bool)
(declare-fun x324 () Bool)
(declare-fun x650 () Bool)
(declare-fun x101 () Bool)
(declare-fun x316 () Bool)
(declare-fun x274 () x11)
(declare-fun x596 () Bool)
(declare-fun x455 () Bool)
(declare-fun x25 () Bool)
(declare-fun x519 () x11)
(declare-fun x39 () Bool)
(declare-fun x430 () Bool)
(declare-fun x527 () Bool)
(declare-fun x639 (x168) Bool)
(declare-fun x624 () Bool)
(declare-fun x190 () Bool)
(declare-fun x569 () Bool)
(declare-fun x159 () Bool)
(declare-fun x547 () Bool)
(declare-fun x372 () Bool)
(declare-fun x443 () Bool)
(declare-fun x204 () Bool)
(declare-fun x292 () Bool)
(declare-fun x717 () Bool)
(declare-fun x482 () Bool)
(declare-fun x297 () Bool)
(declare-fun x151 () x526)
(declare-fun x545 () x11)
(declare-fun x280 () Bool)
(declare-fun x70 (x168 x188) x11)
(declare-fun x648 () x526)
(declare-fun x361 () x168)
(declare-fun x205 () Bool)
(declare-fun x710 () Bool)
(declare-fun x132 () Bool)
(declare-fun x643 () Bool)
(declare-fun x467 () x168)
(declare-fun x495 () Bool)
(declare-fun x143 () Bool)
(declare-fun x187 () Bool)
(declare-fun x27 () Bool)
(declare-fun x474 () x168)
(declare-fun x595 () Bool)
(declare-fun x249 () Bool)
(declare-fun x396 () Bool)
(declare-fun x260 () Bool)
(declare-fun x178 () x11)
(declare-fun x40 () Bool)
(declare-fun x53 () x526)
(declare-fun x591 () Bool)
(declare-fun x287 () Bool)
(declare-fun x670 () Bool)
(declare-fun x92 () x11)
(declare-fun x149 () Bool)
(declare-fun x117 () x526)
(declare-fun x437 () Bool)
(declare-fun x334 () Bool)
(declare-fun x74 () Bool)
(declare-fun x638 () Bool)
(declare-fun x218 () Bool)
(declare-fun x589 () Bool)
(declare-fun x191 () Bool)
(declare-fun x427 () Bool)
(declare-fun x434 () Bool)
(declare-fun x126 () Bool)
(declare-fun x300 () Bool)
(declare-fun x9 () Bool)
(declare-fun x64 () Bool)
(declare-fun x57 () Bool)
(declare-fun x436 () x168)
(declare-fun x8 () Bool)
(declare-fun x703 () Bool)
(declare-fun x131 (x526 x526) x526)
(declare-fun x416 () Bool)
(declare-fun x32 () Bool)
(declare-fun x473 () Bool)
(declare-fun x291 () Bool)
(declare-fun x714 () x11)
(declare-fun x552 () Bool)
(declare-fun x258 () Bool)
(declare-fun x351 () Bool)
(declare-fun x661 () Bool)
(declare-fun x245 () Bool)
(declare-fun x709 () Bool)
(declare-fun x130 () x168)
(declare-fun x252 () Bool)
(declare-fun x465 () Bool)
(declare-fun x194 () x168)
(declare-fun x459 () Bool)
(declare-fun x172 (x11) x168)
(declare-fun x96 () x11)
(declare-fun x192 () Bool)
(declare-fun x368 () x11)
(declare-fun x687 () Bool)
(declare-fun x246 () Bool)
(declare-fun x559 () Bool)
(declare-fun x604 () Bool)
(declare-fun x509 () Bool)
(declare-fun x208 () Bool)
(declare-fun x438 () x168)
(declare-fun x34 () Bool)
(declare-fun x554 () Bool)
(declare-fun x594 () Bool)
(declare-fun x517 () Bool)
(declare-fun x535 () Bool)
(declare-fun x524 () Bool)
(declare-fun x202 () Bool)
(declare-fun x315 () x11)
(declare-fun x103 () Bool)
(declare-fun x614 () Bool)
(declare-fun x618 () Bool)
(declare-fun x342 () Bool)
(declare-fun x532 () Bool)
(declare-fun x698 () Bool)
(declare-fun x211 () Bool)
(declare-fun x157 () Bool)
(declare-fun x52 () Bool)
(declare-fun x196 () Bool)
(declare-fun x226 () x11)
(declare-fun x318 () Bool)
(declare-fun x689 () Bool)
(declare-fun x3 () Bool)
(declare-fun x111 () Bool)
(declare-fun x224 () Bool)
(declare-fun x389 () Bool)
(declare-fun x378 () Bool)
(declare-fun x392 () Bool)
(declare-fun x225 () Bool)
(declare-fun x607 () x168)
(declare-fun x239 () Bool)
(declare-fun x605 () Bool)
(declare-fun x89 () Bool)
(declare-fun x461 () Bool)
(declare-fun x478 () x526)
(declare-fun x5 () Bool)
(declare-fun x134 () Bool)
(declare-fun x160 () Bool)
(declare-fun x472 () Bool)
(declare-fun x464 () Bool)
(declare-fun x566 () x168)
(declare-fun x138 () Bool)
(declare-fun x6 () Bool)
(declare-fun x273 () Bool)
(declare-fun x551 (x526 x526) x526)
(declare-fun x409 () Bool)
(declare-fun x240 () Bool)
(declare-fun x592 () Bool)
(declare-fun x705 () Bool)
(declare-fun x49 () x168)
(declare-fun x685 () Bool)
(declare-fun x432 () Bool)
(declare-fun x373 () Bool)
(declare-fun x672 () x11)
(declare-fun x553 () Bool)
(declare-fun x462 () x11)
(declare-fun x577 () Bool)
(declare-fun x348 () Bool)
(declare-fun x152 () Bool)
(declare-fun x97 () Bool)
(declare-fun x275 () Bool)
(declare-fun x622 () x11)
(declare-fun x469 () Bool)
(declare-fun x585 () x664)
(declare-fun x505 () x11)
(declare-fun x506 () Bool)
(declare-fun x528 () Bool)
(declare-fun x63 () x11)
(declare-fun x161 () Bool)
(declare-fun x197 () Bool)
(declare-fun x43 () Bool)
(declare-fun x621 () Bool)
(declare-fun x412 () Bool)
(declare-fun x271 () Bool)
(declare-fun x207 () Bool)
(declare-fun x242 () Bool)
(declare-fun x557 () Bool)
(declare-fun x671 () Bool)
(declare-fun x483 () Bool)
(declare-fun x452 () Bool)
(declare-fun x599 () Bool)
(declare-fun x95 () Bool)
(declare-fun x602 () Bool)
(declare-fun x534 () Bool)
(declare-fun x353 () Bool)
(declare-fun x574 () x188)
(declare-fun x85 () Bool)
(declare-fun x609 () Bool)
(declare-fun x500 () x168)
(declare-fun x267 () Bool)
(declare-fun x693 () Bool)
(declare-fun x576 () Bool)
(declare-fun x69 () Bool)
(declare-fun x41 () Bool)
(declare-fun x491 () x11)
(declare-fun x30 () Bool)
(declare-fun x494 () Bool)
(declare-fun x706 () Bool)
(declare-fun x429 () Bool)
(declare-fun x288 () x11)
(declare-fun x243 () Bool)
(declare-fun x696 () Bool)
(declare-fun x405 () Bool)
(declare-fun x508 () x168)
(declare-fun x678 (x526 x526) x526)
(declare-fun x660 () Bool)
(declare-fun x694 () Bool)
(declare-fun x248 () Bool)
(declare-fun x402 () x526)
(declare-fun x229 () Bool)
(declare-fun x241 () Bool)
(declare-fun x550 () Bool)
(declare-fun x270 () Bool)
(declare-fun x450 () Bool)
(declare-fun x66 () Bool)
(declare-fun x142 () Bool)
(declare-fun x539 () Bool)
(declare-fun x558 () Bool)
(declare-fun x410 () x526)
(declare-fun x56 () Bool)
(declare-fun x343 () x11)
(declare-fun x520 () Bool)
(declare-fun x381 () Bool)
(declare-fun x470 () Bool)
(declare-fun x153 () Bool)
(declare-fun x186 () Bool)
(declare-fun x201 () x11)
(declare-fun x572 () x168)
(declare-fun x414 () Bool)
(declare-fun x213 () x168)
(declare-fun x511 () Bool)
(declare-fun x36 () Bool)
(declare-fun x303 () x11)
(declare-fun x406 () Bool)
(declare-fun x428 () x526)
(declare-fun x20 () Bool)
(declare-fun x164 () x168)
(declare-fun x512 () Bool)
(declare-fun x306 () Bool)
(declare-fun x232 () Bool)
(declare-fun x26 () Bool)
(declare-fun x166 () x11)
(declare-fun x377 () Bool)
(declare-fun x253 () Bool)
(declare-fun x195 () Bool)
(declare-fun x305 () Bool)
(declare-fun x486 () Bool)
(declare-fun x540 () Bool)
(declare-fun x400 () Bool)
(declare-fun x546 () Bool)
(declare-fun x420 () Bool)
(declare-fun x289 () x11)
(declare-fun x37 () Bool)
(declare-fun x308 () Bool)
(declare-fun x513 () Bool)
(declare-fun x312 () x168)
(declare-fun x113 () Bool)
(declare-fun x394 () Bool)
(declare-fun x340 (x526) Bool)
(declare-fun x136 () Bool)
(declare-fun x525 () Bool)
(declare-fun x183 () x168)
(declare-fun x634 () x526)
(declare-fun x350 () Bool)
(declare-fun x578 () x11)
(declare-fun x90 () Bool)
(declare-fun x656 () Bool)
(declare-fun x294 () Bool)
(declare-fun x683 () x168)
(declare-fun x146 () Bool)
(declare-fun x433 () Bool)
(declare-fun x488 () Bool)
(declare-fun x611 () x526)
(declare-fun x380 () Bool)
(declare-fun x646 () Bool)
(declare-fun x321 () Bool)
(declare-fun x668 () Bool)
(declare-fun x492 () Bool)
(declare-fun x466 () Bool)
(declare-fun x711 () Bool)
(declare-fun x55 () Bool)
(declare-fun x28 () Bool)
(declare-fun x222 () Bool)
(declare-fun x75 () Bool)
(declare-fun x489 () Bool)
(declare-fun x255 () Bool)
(declare-fun x504 () x526)
(declare-fun x219 () Bool)
(declare-fun x390 () Bool)
(declare-fun x29 () Bool)
(declare-fun x587 () Bool)
(declare-fun x349 () Bool)
(declare-fun x626 () Bool)
(declare-fun x155 () Bool)
(declare-fun x493 () Bool)
(declare-fun x468 () Bool)
(declare-fun x369 () Bool)
(declare-fun x697 () Bool)
(declare-fun x485 () Bool)
(declare-fun x425 () Bool)
(declare-fun x496 () Bool)
(declare-fun x616 () Bool)
(declare-fun x23 () Bool)
(declare-fun x251 () x11)
(declare-fun x147 () x168)
(declare-fun x388 () Bool)
(declare-fun x48 () x168)
(declare-fun x629 (Bool x168) x526)
(declare-fun x538 () Bool)
(declare-fun x114 (Bool x536) x11)
(declare-fun x571 () x11)
(declare-fun x654 () Bool)
(declare-fun x295 () Bool)
(declare-fun x112 () Bool)
(declare-fun x67 () Bool)
(declare-fun x716 () Bool)
(declare-fun x364 () Bool)
(declare-fun x73 () Bool)
(declare-fun x2 () Bool)
(declare-fun x712 () Bool)
(declare-fun x150 () Bool)
(declare-fun x209 () Bool)
(declare-fun x603 () Bool)
(declare-fun x272 () Bool)
(declare-fun x503 () Bool)
(declare-fun x81 () x11)
(declare-fun x285 () Bool)
(declare-fun x586 () Bool)
(declare-fun x479 () x526)
(declare-fun x653 () Bool)
(declare-fun x145 () Bool)
(declare-fun x80 () Bool)
(declare-fun x47 () Bool)
(declare-fun x282 () Bool)
(declare-fun x181 () Bool)
(declare-fun x104 () x168)
(declare-fun x522 () Bool)
(declare-fun x382 () Bool)
(declare-fun x669 () Bool)
(declare-fun x458 () Bool)
(declare-fun x641 () Bool)
(declare-fun x154 () Bool)
(declare-fun x344 () Bool)
(declare-fun x12 () Bool)
(declare-fun x684 () x11)
(declare-fun x423 () Bool)
(declare-fun x127 () Bool)
(declare-fun x296 () Bool)
(declare-fun x156 () Bool)
(declare-fun x404 () x11)
(declare-fun x77 () Bool)
(declare-fun x79 () Bool)
(declare-fun x68 () x526)
(declare-fun x180 () Bool)
(declare-fun x144 () Bool)
(declare-fun x307 () Bool)
(declare-fun x499 () Bool)
(declare-fun x386 () Bool)
(declare-fun x424 () x11)
(declare-fun x139 () Bool)
(declare-fun x523 () Bool)
(declare-fun x167 () Bool)
(declare-fun x695 () Bool)
(declare-fun x615 () Bool)
(declare-fun x401 () x526)
(declare-fun x261 () Bool)
(declare-fun x583 () Bool)
(declare-fun x484 () Bool)
(declare-fun x170 () x168)
(declare-fun x541 () Bool)
(declare-fun x360 () Bool)
(declare-fun x600 () x168)
(declare-fun x649 () Bool)
(declare-fun x440 () Bool)
(declare-fun x61 () Bool)
(declare-fun x580 () Bool)
(declare-fun x359 () x11)
(declare-fun x301 () Bool)
(declare-fun x407 () Bool)
(declare-fun x212 () Bool)
(declare-fun x121 () Bool)
(declare-fun x715 () Bool)
(declare-fun x435 () Bool)
(declare-fun x584 () x168)
(declare-fun x366 () Bool)
(declare-fun x487 () Bool)
(declare-fun x355 () x526)
(declare-fun x460 () Bool)
(declare-fun x655 () Bool)
(declare-fun x332 () Bool)
(declare-fun x337 () x11)
(declare-fun x200 () Bool)
(declare-fun x298 () Bool)
(declare-fun x537 () Bool)
(declare-fun x173 () Bool)
(declare-fun x490 () Bool)
(declare-fun x555 () x526)
(declare-fun x457 () Bool)
(declare-fun x237 () Bool)
(declare-fun x374 () Bool)
(declare-fun x133 () x168)
(declare-fun x221 () Bool)
(declare-fun x162 () Bool)
(declare-fun x449 () x168)
(declare-fun x645 () Bool)
(declare-fun x713 () x11)
(declare-fun x91 () x168)
(declare-fun x116 (x168) Bool)
(declare-fun x439 () Bool)
(declare-fun x631 () Bool)
(declare-fun x702 () Bool)
(declare-fun x325 () Bool)
(declare-fun x447 () Bool)
(declare-fun x65 () Bool)
(declare-fun x31 () Bool)
(declare-fun x692 () Bool)
(declare-fun x675 () Bool)
(declare-fun x311 () Bool)
(declare-fun x659 () Bool)
(declare-fun x625 () Bool)
(declare-fun x627 () Bool)
(declare-fun x642 () Bool)
(declare-fun x562 () Bool)
(declare-fun x42 () Bool)
(declare-fun x206 () Bool)
(declare-fun x657 () Bool)
(declare-fun x141 () x11)
(declare-fun x244 () Bool)
(declare-fun x163 () x11)
(declare-fun x227 () x11)
(declare-fun x76 () Bool)
(declare-fun x445 () Bool)
(declare-fun x365 () Bool)
(declare-fun x613 () Bool)
(declare-fun x658 () Bool)
(declare-fun x165 () Bool)
(declare-fun x568 () x168)
(declare-fun x699 () Bool)
(declare-fun x515 () Bool)
(declare-fun x140 () x168)
(declare-fun x7 () Bool)
(declare-fun x105 () Bool)
(declare-fun x456 () Bool)
(declare-fun x106 () x536)
(declare-fun x38 () Bool)
(declare-fun x590 () Bool)
(declare-fun x284 () Bool)
(declare-fun x329 () Bool)
(declare-fun x50 () Bool)
(declare-fun x24 () x11)
(declare-fun x441 () Bool)
(declare-fun x217 () Bool)
(declare-fun x502 () x11)
(declare-fun x480 () Bool)
(declare-fun x704 () Bool)
(declare-fun x336 () x526)
(declare-fun x581 () Bool)
(declare-fun x567 () Bool)
(declare-fun x383 () x11)
(declare-fun x21 () Bool)
(declare-fun x18 () Bool)
(declare-fun x682 () Bool)
(declare-fun x666 () Bool)
(declare-fun x561 () Bool)
(declare-fun x663 () Bool)
(declare-fun x269 () Bool)
(declare-fun x632 () x168)
(declare-fun x393 () Bool)
(declare-fun x175 () Bool)
(declare-fun x644 () Bool)
(declare-fun x328 () Bool)
(declare-fun x718 () Bool)
(declare-fun x346 () Bool)
(declare-fun x82 (x526) x526)
(declare-fun x708 () Bool)
(declare-fun x310 () Bool)
(declare-fun x19 () Bool)
(declare-fun x254 () Bool)
(declare-fun x521 () Bool)
(declare-fun x510 () Bool)
(declare-fun x88 () Bool)
(declare-fun x58 () Bool)
(declare-fun x16 () Bool)
(declare-fun x216 () Bool)
(declare-fun x347 () Bool)
(declare-fun x582 () Bool)
(declare-fun x199 () Bool)
(declare-fun x98 () Bool)
(declare-fun x477 () Bool)
(declare-fun x107 () Bool)
(declare-fun x681 () Bool)
(declare-fun x471 () Bool)
(declare-fun x314 () Bool)
(declare-fun x476 () x526)
(declare-fun x564 () Bool)
(declare-fun x375 () Bool)
(declare-fun x475 () Bool)
(declare-fun x72 () x526)
(declare-fun x413 () Bool)
(declare-fun x135 (x168) Bool)
(declare-fun x700 () Bool)
(declare-fun x529 () x526)
(declare-fun x124 () Bool)
(declare-fun x673 () x11)
(declare-fun x109 () x11)
(declare-fun x266 () Bool)
(declare-fun x189 () Bool)
(declare-fun x247 () x11)
(declare-fun x636 () Bool)
(declare-fun x276 () Bool)
(declare-fun x597 () Bool)
(declare-fun x281 () Bool)
(declare-fun x481 () x11)
(declare-fun x174 () Bool)
(declare-fun x398 () Bool)
(declare-fun x501 () x168)
(declare-fun x548 () Bool)
(declare-fun x87 () Bool)
(declare-fun x530 () Bool)
(declare-fun x679 () Bool)
(declare-fun x110 () Bool)
(declare-fun x690 () x526)
(declare-fun x233 () Bool)
(declare-fun x46 () x526)
(declare-fun x376 () Bool)
(declare-fun x399 () Bool)
(declare-fun x15 () Bool)
(declare-fun x235 () Bool)
(declare-fun x387 () Bool)
(declare-fun x100 () Bool)
(declare-fun x78 (x168) Bool)
(declare-fun x341 () Bool)
(declare-fun x619 () Bool)
(declare-fun x230 (x526 x664) x11)
(declare-fun x635 () x526)
(declare-fun x302 () Bool)
(declare-fun x279 () Bool)
(declare-fun x688 () Bool)
(declare-fun x419 () Bool)
(declare-fun x565 () Bool)
(declare-fun x115 () x11)
(declare-fun x453 () Bool)
(declare-fun x415 () x168)
(declare-fun x371 () Bool)
(declare-fun x426 () x168)
(declare-fun x408 () x11)
(declare-fun x93 () Bool)
(declare-fun x367 () Bool)
(declare-fun x84 () Bool)
(declare-fun x214 () Bool)
(declare-fun x177 () Bool)
(declare-fun x184 () Bool)
(declare-fun x518 (x526) x168)
(declare-fun x633 () Bool)
(declare-fun x169 () x168)
(declare-fun x263 () x11)
(declare-fun x158 () Bool)
(declare-fun x446 () Bool)
(declare-fun x588 () Bool)
(declare-fun x598 () Bool)
(declare-fun x701 () Bool)
(declare-fun x286 () Bool)
(declare-fun x356 () Bool)
(declare-fun x171 () Bool)
(declare-fun x345 () Bool)
(declare-fun x326 () x168)
(declare-fun x128 () Bool)
(declare-fun x256 () Bool)
(declare-fun x418 () Bool)
(declare-fun x223 () Bool)
(declare-fun x338 () Bool)
(declare-fun x370 () Bool)
(declare-fun x313 () Bool)
(declare-fun x293 () Bool)
(declare-fun x299 () Bool)
(declare-fun x411 () Bool)
(declare-fun x691 () Bool)
(declare-fun x83 () Bool)
(declare-fun x262 () Bool)
(declare-fun x203 () Bool)
(declare-fun x560 () Bool)
(declare-fun x304 () x11)
(declare-fun x268 () Bool)
(declare-fun x651 () x11)
(declare-fun x665 () Bool)
(declare-fun x543 () Bool)
(declare-fun x498 () Bool)
(declare-fun x397 () x11)
(declare-fun x60 () x11)
(declare-fun x570 () x526)
(declare-fun x451 () Bool)
(declare-fun x323 () Bool)
(declare-fun x647 () Bool)
(declare-fun x129 () Bool)
(declare-fun x403 () x526)
(declare-fun x59 () Bool)
(assert (= x557 (and x552 (not x156))))
(assert (= x472 (and x332 x447)))
(assert (= x5 (and (not x192) x468)))
(assert (= x668 (and x497 x282)))
(assert (= x38 (not x280)))
(assert (= (= x682 x535) x161))
(assert (= x635 (x629 x191 x312)))
(assert (= x41 (and x686 x241)))
(assert (= (= x408 x462) x444))
(assert (= x238 (and x330 x386)))
(assert (= x510 (not x73)))
(assert (= (and x23 x18) x1))
(assert (= (and x495 x447) x453))
(assert (= (ite x325 x683 x312) x51))
(assert (= (and x215 x132) x224))
(assert (= (or x311 x255) x468))
(assert (= x177 (x116 x147)))
(assert (= x491 (ite x699 x672 x578)))
(assert (= (not x4) x284))
(assert (= (and (not x311) x506) x102))
(assert (= x381 (ite x275 x85 x265)))
(assert (= (ite x498 x316 x58) x323))
(assert (= (not x654) x562))
(assert (= (and (not x703) x475) x591))
(assert (= x377 (and (not x703) x281)))
(assert (= x369 (not x373)))
(assert (= x74 x18))
(assert (= (or x212 x482) x66))
(assert (= (x78 x326) x275))
(assert (= (and (not x192) x102) x588))
(assert (= (or x506 x311) x139))
(assert (= (and x284 x520) x556))
(assert (= (not x686) x177))
(assert (= (not x646) x676))
(assert (= (not (= x13 x53)) x450))
(assert (= (x639 x508) x520))
(assert (= x23 x560))
(assert (= (and (not x207) x591) x119))
(assert (= x702 (and x612 x447)))
(assert (= x284 x527))
(assert (distinct x415 x500 x449 x170 x283 x683 x185 x361 x474 x544 x426 x501 x312 x234 x183 x640))
(assert (= (ite x33 x447 x211) x396))
(assert (= x100 (and x215 x243)))
(assert (= x573 (or x73 x233)))
(assert (= (and (not x550) x700) x237))
(assert (= x497 (and x18 x344)))
(assert (= (not x452) x126))
(assert (= (not x221) x376))
(assert (= (and x152 x633) x232))
(assert (= x18 (x116 x133)))
(assert (= (and x126 (not x160)) x503))
(assert (= (or x156 x706) x541))
(assert (= (and x286 x128 x667 x93 x199 x277 x198 x704 x161 x445 x256 x716 x348 x490 x77 x142 x257 x210 x483 x113 x267) x356))
(assert (= x695 (and (not x646) x680)))
(assert (= x299 (x135 x147)))
(assert (= (and x284 x307) x74))
(assert (= (ite x26 x329 x441) x440))
(assert (= x123 (ite x702 x447 x80)))
(assert (= x570 (x82 x422)))
(assert (not (= x401 x151)))
(assert (= x333 x64))
(assert (= (or x646 x407) x155))
(assert (= (x629 x95 x312) x422))
(assert (= (and x447 x547) x598))
(assert (= (ite x207 x185 x169) x467))
(assert (= (ite x452 x361 x51) x566))
(assert (= (and x271 x527) x57))
(assert (= (= x107 x681) x348))
(assert (= (not x563) x26))
(assert (= (x172 x519) x164))
(assert (= x110 (not x351)))
(assert (= (= x462 x337) x76))
(assert (= (ite x546 x447 x626) x306))
(assert (= x548 (or x196 x460)))
(assert (distinct x227 x622 x304 x109 x404 x713 x684 x579 x226 x462 x24 x247 x201 x359 x502 x672 x251))
(assert (= (ite x138 x201 x384) x289))
(assert (= x652 x539))
(assert (= x652 (x78 x147)))
(assert (= x522 (and x564 x527)))
(assert (= x398 (and x1 x282)))
(assert (= x704 (= x86 x479)))
(assert (= x430 (ite x31 x118 x530)))
(assert (= (and (not x543) x167) x626))
(assert (= (or x582 x399) x276))
(assert x663)
(assert (= (not x484) x333))
(assert (= x636 (and x447 x238)))
(assert (= x257 (= x569 x441)))
(assert (= (ite x192 x502 x383) x481))
(assert (= (ite x275 x510 x214) x496))
(assert (= (= x123 x644) x199))
(assert (= (not x25) x421))
(assert (= x419 (not x190)))
(assert (= x371 (or x76 x444)))
(assert (= (ite x453 x447 x242) x535))
(assert (= x195 (not x378)))
(assert (= x197 (and x330 x200)))
(assert (= (x629 x298 x312) x13))
(assert (= (and x656 x497) x423))
(assert (= x167 (not x311)))
(assert (= (ite x636 x447 x240) x705))
(assert (= (and x425 x330) x385))
(assert (= x52 (and (not x309) x3)))
(assert (= x103 (and x318 x656)))
(assert (= (not (= x462 x236)) x633))
(assert (= x708 (and x214 (not x12))))
(assert (= x606 (x340 x86)))
(assert (= x366 (ite x472 x447 x84)))
(assert (= (and (not x137) x270) x455))
(assert (= x240 (and x85 (not x222))))
(assert (= (ite x550 x183 x213) x568))
(assert (= x137 (and x335 x527)))
(assert (= x341 (and x487 x601)))
(assert (= x564 (and x264 x1)))
(assert (= x94 (and (not x488) x531)))
(assert (= (= x37 x259) x445))
(assert (= (ite x275 x531 x692) x118))
(assert (= x223 x325))
(assert (= x195 x20))
(assert (= x663 (and x617 x285 x493 x280 x22 x373 x25 x654 x356 x136 x296 x485 x477 x540 x351 x717)))
(assert (= x698 (and x447 x621)))
(assert (= (ite x389 x447 x455) x272))
(assert (= x542 (not x587)))
(assert (= x316 (ite x26 x158 x567)))
(assert (= x700 (and x631 (not x699))))
(assert (= (ite x207 x227 x545) x507))
(assert (= (not x482) x292))
(assert (= x656 (and x378 x221)))
(assert (= (or x217 x138) x506))
(assert (= (and x195 x376) x216))
(assert (= (and x292 (not x522)) x301))
(assert (= x490 (= x400 x693)))
(assert (= x594 (ite x31 x466 x649)))
(assert (distinct x415 x185 x544 x312 x183 x283 x170 x449 x361 x474 x683 x500 x234 x640 x501 x426))
(assert (= x297 (and x527 x127)))
(assert (= (and (not x322) x676) x182))
(assert (= (and x527 x205) x47))
(assert (= (ite x550 x251 x491) x571))
(assert (= (not x703) x692))
(assert (= (and x177 x241) x330))
(assert (= (x678 x13 x570) x403))
(assert (= x681 (ite x157 x447 x182)))
(assert (= (x70 x436 x574) x442))
(assert (= x521 (and x577 (not x674))))
(assert (= (and x284 x604) x20))
(assert (= (and x527 x398) x160))
(assert (= (ite x452 x24 x166) x81))
(assert (= (= x86 x151) x662))
(assert (= x198 (= x603 x567)))
(assert (= (ite x275 x167 x54) x8))
(assert (= (not x325) x3))
(assert (= (ite x26 x34 x616) x58))
(assert (= (ite x646 x247 x343) x274))
(assert (= (ite x26 x400 x644) x97))
(assert (= x628 (and x364 x216)))
(assert (= x142 (= x616 x272)))
(assert (= (and x386 x41) x495))
(assert (= x471 (ite x698 x447 x90)))
(assert (= (and x527 x668) x12))
(assert (= x595 (ite x446 x447 x301)))
(assert (= (or x313 x311) x121))
(assert (= x407 (or x627 x674)))
(assert (= x428 (x551 x53 x403)))
(assert (= x706 (or x695 x73)))
(assert (= x601 (and x299 x686)))
(assert (= (not x75) x95))
(assert (= (ite x674 x404 x481) x343))
(assert (= (and x377 (not x207)) x146))
(assert (= (and x23 x43) x318))
(assert (= (not x707) x511))
(assert (= x515 (ite x419 x653 x244)))
(assert (= (ite x26 x461 x107) x2))
(assert (= (and (not x587) x119) x243))
(assert (= x332 (and x330 x487)))
(assert (= x448 (ite x482 x426 x566)))
(assert (= (x135 x326) x419))
(assert (= x558 (ite x498 x97 x554)))
(assert (= x392 (ite x31 x8 x431)))
(assert (= x577 (or x121 x192)))
(assert (= x547 (and x391 x425)))
(assert (= (and x412 x215) x64))
(assert (= (ite x710 x691 x430) x244))
(assert (= x38 (and x704 x122 x606)))
(assert (= (x131 x428 x555) x479))
(assert (= x60 (ite x73 x684 x274)))
(assert (= (not x647) x710))
(assert (= (= x462 x236) x582))
(assert (= x376 (x639 x133)))
(assert (= x132 (and (not x587) x146)))
(assert (= (ite x498 x6 x2) x218))
(assert (= x562 (and x532 x248 x98 x379 x563)))
(assert (= x489 (and x391 x386)))
(assert (= x233 (and (not x646) x521)))
(assert (= (not x192) x54))
(assert (= (ite x275 x349 x542) x530))
(assert (= (= x366 x329) x667))
(assert (= x45 (ite x311 x283 x572)))
(assert (= (= x661 x705) x286))
(assert (= x631 (and (not x156) x443)))
(assert (= x144 (and x129 (not x699))))
(assert (= x592 (and x148 x527)))
(assert (= (ite x311 x304 x289) x383))
(assert (= x239 (and x29 (not x587))))
(assert (= x299 (not x241)))
(assert (= (and x54 (not x47)) x87))
(assert (= (ite x260 x291 x406) x191))
(assert (= (and (not x73) x155) x443))
(assert (= x111 (or x674 x5)))
(assert (= x21 (not (= x462 x337))))
(assert (= x552 (or x88 x73)))
(assert (= x143 (not x22)))
(assert (= x157 (and x273 x447)))
(assert (= (= x305 x158) x716))
(assert (= (or x192 x139) x627))
(assert (= x187 (not (= x355 x86))))
(assert (= x328 (and x662 x707 x187)))
(assert (= x600 (ite x587 x312 x467)))
(assert (= (and x364 x264) x669))
(assert (= x333 (x639 x147)))
(assert (= x18 (not x43)))
(assert (= (ite x339 x447 x52) x305))
(assert (= (x78 x320) x26))
(assert (= (and x527 x423) x559))
(assert (= (not x152) x30))
(assert (= x212 (and (not x452) x223)))
(assert (= (ite x275 x292 x270) x649))
(assert (= (ite x26 x661 x354) x17))
(assert (= x30 (x340 x53)))
(assert (= (and x264 x318) x127))
(assert (= x224 x177))
(assert (= (not x460) x531))
(assert (= (x629 x284 x312) x402))
(assert (= x519 (ite x587 x462 x507)))
(assert (= x61 (ite x589 x447 x171)))
(assert (= (ite x26 x682 x499) x554))
(assert (= x130 (ite x674 x234 x49)))
(assert (= x560 (and x284 x602)))
(assert (= (= x189 x511) x113))
(assert (= x95 (and x298 x134)))
(assert (= x693 (ite x701 x447 x94)))
(assert (= x252 (and x447 x159)))
(assert (= x603 (ite x598 x447 x503)))
(assert (= (and x318 x282) x205))
(assert (= (and x447 x385) x56))
(assert (= (x639 x320) x498))
(assert (= x313 (and x261 (not x138))))
(assert (= (and x391 x200) x334))
(assert (= (x70 x632 x574) x408))
(assert (= x447 x215))
(assert (= (x629 x511 x312) x355))
(assert (= (or x460 x655) x278))
(assert (= x376 x556))
(assert (= x322 (and x527 x103)))
(assert (= x134 (= x109 x63)))
(assert (= x215 (and x298 x75)))
(assert (not (= x151 x401)))
(assert (= x685 (and x487 x41)))
(assert (= x382 (or x427 x550)))
(assert (= (and x341 x447) x546))
(assert (= (not x674) x696))
(assert (= x328 (not x617)))
(assert (= (and x41 x425) x612))
(assert (= x98 (not (= x312 x320))))
(assert (= x143 (and x262 x30)))
(assert (= x336 (x629 x37 x312)))
(assert (= x210 (= x194 x637)))
(assert (= x260 (not x532)))
(assert (= (not x279) x298))
(assert (= (x518 x53) x436))
(assert (= (and x527 x628) x488))
(assert (= (not (= x53 x555)) x465))
(assert (= (and x111 (not x646)) x88))
(assert (= (= x595 x34) x256))
(assert (= x335 (and x1 x656)))
(assert (= (and (not x703) x278) x512))
(assert (= (x135 x320) x260))
(assert (= x261 (and x71 (not x482))))
(assert (= x93 (= x354 x396)))
(assert (= (and x318 x216) x245))
(assert (= x543 (and x527 x245)))
(assert (= (or x699 x541) x427))
(assert (= (x78 x133) x195))
(assert (= (and (not x138) x66) x255))
(assert (= (and x484 x346) x200))
(assert (= x555 (x678 x402 x68)))
(assert (= (= x296 x276) x485))
(assert (= (and x279 x262 x450) x110))
(assert (= (and x386 x601) x621))
(assert (= x458 (not x540)))
(assert (= x458 (and x606 x662)))
(assert (= (and x264 x497) x451))
(assert (= (or x548 x703) x209))
(assert (= x196 (and x144 (not x550))))
(assert (= (and x484 x652) x386))
(assert (= (and x216 x1) x44))
(assert (= x23 (x135 x133)))
(assert (= (and x28 x527) x463))
(assert (= x680 (and (not x674) x588)))
(assert (= (x639 x326) x31))
(assert (= (= x53 x555) x122))
(assert (= (not x362) x606))
(assert (= x545 (ite x703 x359 x263)))
(assert (= x364 (and x344 x43)))
(assert (= (ite x646 x501 x130) x104))
(assert (= (and x195 x221) x264))
(assert (= (x116 x508) x307))
(assert (= x666 (not x493)))
(assert (= x369 (and x21 x362)))
(assert (= x159 (and x601 x425)))
(assert (= x71 (or x452 x223)))
(assert (= x653 (ite x710 x594 x392)))
(assert (= (and (not x460) x382) x281))
(assert (= x171 (and (not x592) x542)))
(assert (= x390 (not (= x690 x86))))
(assert (= x29 (or x512 x207)))
(assert (= (ite x138 x170 x448) x572))
(assert (= x701 (and x447 x685)))
(assert (= (= x184 x186) x77))
(assert (= (ite x284 x508 x312) x133))
(assert (= (and x696 (not x297)) x90))
(assert (= x604 (x78 x508)))
(assert (= (not x477) x469))
(assert (= x291 (ite x575 x323 x218)))
(assert (= x391 (and x177 x299)))
(assert (= x446 (and x447 x489)))
(assert (= x466 (ite x275 x3 x126)))
(assert (= x337 (x114 x606 x106)))
(assert (= (ite x73 x474 x104) x395))
(assert (= x590 (ite x498 x440 x17)))
(assert (= x100 x299))
(assert (= (= x61 x499) x483))
(assert (= x214 (not x156)))
(assert (= x162 (and x391 x487)))
(assert (= (not x248) x575))
(assert (= x68 (x629 x515 x312)))
(assert (= (not x717) x232))
(assert (= (and x601 x200) x273))
(assert (= x277 (= x637 x320)))
(assert (= x166 (ite x325 x622 x462)))
(assert (= (ite x703 x449 x48) x169))
(assert (= (ite x56 x447 x708) x569))
(assert (distinct x227 x24 x404 x109 x226 x713 x251 x622 x247 x304 x672 x579 x502 x684 x359 x201 x462))
(assert (= (and x465 x4 x262) x421))
(assert (= x23 (not x344)))
(assert (= x267 (= x471 x461)))
(assert (= x236 (x114 x30 x106)))
(assert (= x89 (and x200 x41)))
(assert (= (or x573 x156) x129))
(assert (= (and x374 (not x587)) x412))
(assert (= x539 (and x239 x215)))
(assert (= x431 (ite x275 x696 x676)))
(assert (= x575 (x116 x320)))
(assert (= (ite x215 x164 x312) x147))
(assert (= x691 (ite x31 x496 x381)))
(assert (= x148 (and x364 x656)))
(assert (= (and x524 x647 x65 x353 x190) x469))
(assert (= x374 (and (not x207) x209)))
(assert (= (not x138) x270))
(assert (= x711 (and x527 x669)))
(assert (= (ite x460 x226 x571) x263))
(assert (= (not x285) x643))
(assert (= x487 (and x333 x652)))
(assert (= (= x371 x666) x136))
(assert (= x389 (and x334 x447)))
(assert (= x584 (ite x156 x640 x395)))
(assert (= x309 (and x527 x44)))
(assert (= x48 (ite x460 x500 x568)))
(assert (= x655 (and x321 (not x550))))
(assert (= x652 (not x346)))
(assert (= x632 (x518 x86)))
(assert (= x242 (and x349 (not x711))))
(assert (= x475 (and x237 (not x460))))
(assert (= (= x462 x442) x399))
(assert (= x33 (and x197 x447)))
(assert (= (= x619 x306) x128))
(assert (= (ite x482 x713 x81) x384))
(assert (= (and (not x463) x510) x84))
(assert (= (not x207) x349))
(assert (= x690 (x678 x336 x635)))
(assert (= (not x65) x275))
(assert (= x262 (= x53 x151)))
(assert (= x578 (ite x156 x579 x60)))
(assert (= (not (= x326 x312)) x524))
(assert (= x217 (or x71 x482)))
(assert (= (and x378 x376) x282))
(assert (= x28 (and x216 x497)))
(assert (= (ite x575 x590 x558) x406))
(assert (= x31 (not x353)))
(assert (= (and x692 (not x57)) x80))
(assert (= x164 x600))
(assert (= (ite x26 x619 x184) x6))
(assert (= (ite x252 x447 x87) x186))
(assert (= (not x379) x498))
(assert (= x425 (and x333 x346)))
(assert (= x37 (not x331)))
(assert (= x265 (not x550)))
(assert (= x643 (and x331 x390 x662)))
(assert (= (ite x192 x415 x45) x49))
(assert (= (and x364 x282) x271))
(assert (= x710 (x116 x326)))
(assert (= x339 (and x447 x162)))
(assert (= x222 (and x527 x451)))
(assert (= x63 (x230 x53 x585)))
(assert (= x211 (and (not x559) x265)))
(assert (= (not x699) x85))
(assert (= x602 (x135 x508)))
(assert (= (or x557 x699) x321))
(assert (= x213 (ite x699 x544 x584)))
(assert (= (and x89 x447) x589))
(check-sat)
(exit)
